p cnf 12 46
1 2 3 0
4 5 6 0
7 8 9 0
10 11 12 0
-1 -2 0
-1 -3 0
-2 -3 0
-4 -5 0
-4 -6 0
-5 -6 0
-7 -8 0
-7 -9 0
-8 -9 0
-10 -11 0
-10 -12 0
-11 -12 0
-1 -4 0
-1 -7 0
-4 -1 0
-4 -7 0
-4 -10 0
-7 -1 0
-7 -4 0
-7 -10 0
-10 -4 0
-10 -7 0
-2 -5 0
-2 -8 0
-5 -2 0
-5 -8 0
-5 -11 0
-8 -2 0
-8 -5 0
-8 -11 0
-11 -5 0
-11 -8 0
-3 -6 0
-3 -9 0
-6 -3 0
-6 -9 0
-6 -12 0
-9 -3 0
-9 -6 0
-9 -12 0
-12 -6 0
-12 -9 0
